Running for instance ./models/r205.txt
Generating routes...
Execution time:  3.339148  seconds
Academic license - for non-commercial use only
Warning: constraint name "Cliente esta na rota x1" has a space
Optimize a model with 26 rows, 10000 columns and 75174 nonzeros
Variable types: 0 continuous, 10000 integer (0 binary)
Coefficient statistics:
  Matrix range     [1e+00, 1e+00]
  Objective range  [2e+01, 5e+02]
  Bounds range     [1e+00, 1e+00]
  RHS range        [1e+00, 2e+01]
Found heuristic solution: objective 742.6955749
Presolve removed 1 rows and 3872 columns
Presolve time: 0.06s
Presolved: 25 rows, 6128 columns, 41534 nonzeros
Found heuristic solution: objective 673.7140364
Variable types: 0 continuous, 6128 integer (6128 binary)

Root relaxation: objective 4.826006e+02, 87 iterations, 0.01 seconds

    Nodes    |    Current Node    |     Objective Bounds      |     Work
 Expl Unexpl |  Obj  Depth IntInf | Incumbent    BestBd   Gap | It/Node Time

     0     0  482.60061    0    9  673.71404  482.60061  28.4%     -    0s
H    0     0                     543.0547370  482.60061  11.1%     -    0s
H    0     0                     494.2325429  482.60061  2.35%     -    0s
     0     0  487.19021    0   14  494.23254  487.19021  1.42%     -    0s
     0     0  491.16491    0    6  494.23254  491.16491  0.62%     -    0s
     0     0 infeasible    0       494.23254  494.23254  0.00%     -    0s

Explored 1 nodes (117 simplex iterations) in 0.14 seconds
Thread count was 8 (of 8 available processors)

Solution count 3: 494.233 543.055 673.714 

Optimal solution found (tolerance 1.00e-04)
Best objective 4.942325429394e+02, best bound 4.942325429394e+02, gap 0.0000%

Routes:
15 21 2 22 23 12
6 18 8 17 13 4 25 24 1
14 16 5
7 11 19 10 20 9 3

Distance: 494.232542939
Execution time:  4.351849  seconds
